(set-info :smt-lib-version 2.6)
(set-logic QF_LRA)
(set-info :source |
The Formal Verification of a Reintegration Protocol. Author: Lee Pike. Website: http://www.cs.indiana.edu/~lepike/pub_pages/emsoft.html.

This benchmark was automatically translated into SMT-LIB format from
CVC format using CVC Lite
|)
(set-info :category "industrial")
(set-info :status unsat)
(declare-fun x_0 () Real)
(declare-fun x_1 () Bool)
(declare-fun x_2 () Real)
(declare-fun x_3 () Real)
(declare-fun x_4 () Bool)
(declare-fun x_5 () Real)
(declare-fun x_6 () Bool)
(declare-fun x_7 () Bool)
(declare-fun x_8 () Bool)
(declare-fun x_9 () Real)
(declare-fun x_10 () Real)
(declare-fun x_11 () Bool)
(declare-fun x_12 () Bool)
(declare-fun x_13 () Bool)
(declare-fun x_14 () Bool)
(declare-fun x_15 () Bool)
(declare-fun x_16 () Bool)
(declare-fun x_17 () Real)
(declare-fun x_18 () Real)
(declare-fun x_19 () Real)
(declare-fun x_20 () Real)
(declare-fun x_21 () Bool)
(declare-fun x_22 () Bool)
(declare-fun x_23 () Bool)
(declare-fun x_24 () Bool)
(declare-fun x_25 () Bool)
(declare-fun x_26 () Real)
(declare-fun x_27 () Real)
(declare-fun x_28 () Bool)
(declare-fun x_29 () Bool)
(declare-fun x_30 () Real)
(declare-fun x_31 () Real)
(declare-fun x_32 () Real)
(declare-fun x_33 () Real)
(declare-fun x_34 () Real)
(declare-fun x_35 () Real)
(declare-fun x_36 () Real)
(declare-fun x_37 () Bool)
(declare-fun x_38 () Bool)
(declare-fun x_39 () Bool)
(declare-fun x_40 () Bool)
(declare-fun x_41 () Bool)
(declare-fun x_42 () Bool)
(declare-fun x_43 () Real)
(declare-fun x_44 () Real)
(declare-fun x_45 () Real)
(declare-fun x_46 () Real)
(declare-fun x_47 () Real)
(declare-fun x_48 () Real)
(declare-fun x_49 () Real)
(declare-fun x_50 () Real)
(declare-fun x_51 () Real)
(declare-fun x_52 () Real)
(declare-fun x_53 () Bool)
(declare-fun x_54 () Real)
(declare-fun x_55 () Real)
(declare-fun x_56 () Real)
(assert (let ((?v_31 (+ x_10 x_2)) (?v_78 (<= x_9 x_26)) (?v_56 (= x_14 x_6)) (?v_11 (= x_17 0)) (?v_17 (< x_9 x_27)) (?v_41 (= x_26 x_9)) (?v_57 (= x_17 2)) (?v_68 (= x_28 x_29)) (?v_69 (and (= x_21 x_11) (= x_22 x_12))) (?v_54 (= x_25 x_13)) (?v_55 (and (= x_23 x_1) (= x_24 x_4))) (?v_70 (= x_30 x_31)) (?v_71 (and (= x_32 x_33) (= x_34 x_35))) (?v_27 (= x_36 x_27)) (?v_53 (= x_15 x_7)) (?v_51 (= x_37 x_38)) (?v_52 (and (= x_39 x_40) (= x_41 x_42))) (?v_72 (= x_16 x_8)) (?v_80 (- x_18 x_10)) (?v_28 (= x_17 1)) (?v_48 (+ x_2 x_10)) (?v_44 (<= x_43 x_26))) (let ((?v_50 (= x_28 (or x_29 (and ?v_44 x_38)))) (?v_34 (<= x_3 ?v_31)) (?v_36 (<= x_5 ?v_31)) (?v_33 (<= x_3 x_2)) (?v_35 (<= x_5 x_2)) (?v_12 (not x_11)) (?v_59 (< x_3 x_9)) (?v_60 (= x_26 x_3)) (?v_13 (not x_12)) (?v_62 (< x_5 x_9)) (?v_63 (= x_26 x_5)) (?v_20 (not x_29)) (?v_81 (not ?v_78)) (?v_38 (not x_40)) (?v_39 (not x_42)) (?v_40 (not x_38))) (let ((?v_29 (not ?v_33))) (let ((?v_42 (and ?v_29 (<= x_3 x_26))) (?v_30 (not ?v_35))) (let ((?v_43 (and ?v_30 (<= x_5 x_26)))) (let ((?v_49 (and (= x_21 (or x_11 (and ?v_42 x_40))) (= x_22 (or x_12 (and ?v_43 x_42))))) (?v_37 (<= x_43 ?v_31)) (?v_65 (< x_43 x_9)) (?v_66 (= x_26 x_43)) (?v_45 (not ?v_34)) (?v_46 (not ?v_36)) (?v_6 (and (not (<= x_43 x_2)) ?v_44)) (?v_7 (and (not (<= x_46 x_2)) (<= x_46 x_26)))) (let ((?v_47 (not ?v_37)) (?v_26 (= x_30 0)) (?v_16 (= x_30 3)) (?v_22 (= x_32 0)) (?v_14 (= x_32 3)) (?v_24 (= x_34 0)) (?v_15 (= x_34 3)) (?v_1 (not (= x_0 2))) (?v_3 (< x_2 x_3)) (?v_4 (< x_2 x_5)) (?v_0 (not ?v_28)) (?v_77 (not (<= x_18 x_19))) (?v_79 (not (<= x_18 x_20))) (?v_82 (not x_23)) (?v_84 (not x_24)) (?v_32 (not x_16)) (?v_83 (< x_26 x_19)) (?v_85 (< x_26 x_20)) (?v_73 (= x_0 0))) (let ((?v_76 (not ?v_73)) (?v_74 (= x_0 1))) (let ((?v_2 (not ?v_74)) (?v_58 (not x_1)) (?v_61 (not x_4)) (?v_64 (not x_13)) (?v_75 (not x_8)) (?v_8 (and (not (<= x_49 x_2)) (<= x_49 x_26))) (?v_18 (= x_32 (ite ?v_12 (ite (and ?v_42 (< x_33 3)) (+ x_33 1) x_33) x_33))) (?v_19 (= x_34 (ite ?v_13 (ite (and ?v_43 (< x_35 3)) (+ x_35 1) x_35) x_35))) (?v_21 (or x_11 ?v_14)) (?v_23 (or x_12 ?v_15)) (?v_25 (or x_29 ?v_16)) (?v_5 (ite ?v_6 2 1)) (?v_9 (ite ?v_6 3 2)) (?v_10 (ite ?v_6 1 0)) (?v_67 (<= (ite x_13 (ite x_4 (ite x_1 3 2) x_44) (ite x_4 x_44 (ite x_1 1 0))) (* (* (ite x_29 (ite x_12 (ite x_11 0 1) x_45) (ite x_12 x_45 (ite x_11 2 3))) 1) (/ 1 2))))) (and (and (and (and (and (and (and (and (and (and (and (and (and (and (and (and (and (and (and (and (and (and (and (and (and (and (and (and (and (and (and (and (and (and (and (and (and (and (and (and (and (and (and (and (and (and (and (and (and (and (and (and (and (and (and (and (and (and (and (and (and (and (and (and (and (and (and (and (and (and (and (and (and (and (and (and (and (and (<= x_17 2) (>= x_17 0)) (<= x_0 2)) (>= x_0 0)) (>= x_2 0)) (>= x_3 0)) (>= x_5 0)) (>= x_9 0)) (> x_10 0)) (>= x_10 0)) (>= x_18 0)) (>= x_19 0)) (>= x_20 0)) (>= x_26 0)) (>= x_27 0)) (or (or (or ?v_26 (= x_30 1)) (= x_30 2)) ?v_16)) (not (< x_30 0))) (<= x_30 3)) (or (or (or (= x_31 0) (= x_31 1)) (= x_31 2)) (= x_31 3))) (not (< x_31 0))) (<= x_31 3)) (or (or (or ?v_22 (= x_32 1)) (= x_32 2)) ?v_14)) (not (< x_32 0))) (<= x_32 3)) (or (or (or (= x_33 0) (= x_33 1)) (= x_33 2)) (= x_33 3))) (not (< x_33 0))) (<= x_33 3)) (or (or (or ?v_24 (= x_34 1)) (= x_34 2)) ?v_15)) (not (< x_34 0))) (<= x_34 3)) (or (or (or (= x_35 0) (= x_35 1)) (= x_35 2)) (= x_35 3))) (not (< x_35 0))) (<= x_35 3)) (>= x_36 0)) (>= x_43 0)) (>= x_46 0)) (>= x_49 0)) (not (<= x_52 (* x_10 3)))) (>= x_52 0)) (>= x_54 0)) (>= x_55 0)) (>= x_56 0)) (or ?v_1 (and (or x_1 ?v_3) (or x_4 ?v_4)))) (or (not ?v_11) (and x_16 x_14))) (or ?v_0 (and x_15 x_14))) (or (not ?v_57) (and x_15 x_16))) ?v_77) ?v_79) (< (- x_18 x_19) x_10)) (< (- x_18 x_20) x_10)) (not x_21)) (not x_22)) (or ?v_0 (and (and ?v_82 ?v_84) (not x_25)))) (or (or ?v_0 ?v_32) (and ?v_83 ?v_85))) (or ?v_76 (and x_8 x_6))) (or ?v_2 (and x_7 x_6))) (or ?v_1 (and x_7 x_8))) (not (<= x_9 x_3))) (not (<= x_9 x_5))) (< (- x_9 x_3) x_10)) (< (- x_9 x_5) x_10)) ?v_12) ?v_13) (or ?v_2 (and (and ?v_58 ?v_61) ?v_64))) (or (or ?v_2 ?v_75) (and ?v_3 ?v_4))) (= x_44 (ite x_1 2 1))) (= x_45 (ite x_11 1 2))) (= x_47 ?v_5)) (= x_48 ?v_5)) (= x_50 (+ (ite ?v_8 (ite ?v_7 ?v_9 x_47) (ite ?v_7 x_47 ?v_10)) x_31))) (= x_51 (+ (ite ?v_8 (ite ?v_7 ?v_9 x_48) (ite ?v_7 x_48 ?v_10)) x_31))) (or (or (and (and (and (and (and (and (or (and (and (and (and (and (and (and (and (and (and ?v_11 ?v_17) ?v_41) ?v_18) ?v_19) (= x_30 (ite ?v_20 (ite (not (< x_50 3)) 3 x_50) x_31))) (= x_21 ?v_21)) (= x_22 ?v_23)) (= x_28 ?v_25)) ?v_53) ?v_27) (and (and (and (and (and (and (and (and (and (and ?v_11 (not ?v_17)) x_15) (= x_26 x_27)) ?v_18) ?v_19) (= x_30 (ite ?v_20 (ite (not (< x_51 3)) 3 x_51) x_31))) (= x_21 (or ?v_21 ?v_22))) (= x_22 (or ?v_23 ?v_24))) (= x_28 (or ?v_25 ?v_26))) ?v_27)) ?v_51) ?v_52) ?v_72) ?v_54) ?v_55) ?v_56) (and (and (and (and (and (and (and (or (and (and (and (and (and (and (and (and (and (and (and ?v_28 (or (or (and (and (and ?v_29 ?v_12) ?v_38) ?v_34) (and (and (and ?v_30 ?v_13) ?v_39) ?v_36)) (and (and ?v_20 ?v_40) ?v_37))) ?v_32) (or (or (or (or ?v_33 ?v_45) x_40) x_11) (not (< x_26 x_3)))) (or (or (or (or ?v_35 ?v_46) x_42) x_12) (not (< x_26 x_5)))) (or (or (or ?v_47 x_38) x_29) (not (< x_26 x_43)))) (or (or (or (and (and (and (and ?v_38 ?v_12) ?v_34) ?v_59) ?v_60) (and (and (and (and ?v_39 ?v_13) ?v_36) ?v_62) ?v_63)) (and (and (and (and ?v_40 ?v_20) ?v_37) ?v_65) ?v_66)) (and (< x_9 ?v_48) ?v_41))) (= x_39 (or x_40 ?v_42))) (= x_41 (or x_42 ?v_43))) (= x_37 (or x_38 ?v_44))) ?v_49) ?v_50) (and (and (and (and (and (and (and (and (and ?v_28 (or (or (or ?v_33 x_40) x_11) ?v_45)) (or (or (or ?v_35 x_42) x_12) ?v_46)) (or (or x_38 x_29) ?v_47)) x_16) (= x_26 ?v_48)) ?v_49) ?v_50) ?v_51) ?v_52)) ?v_70) ?v_71) ?v_27) ?v_53) ?v_54) ?v_55) ?v_56)) (and (and (and (and (and (and (and (or (and (and (and (and (and (and (and (and (and (and (and ?v_57 ?v_67) (not x_14)) (or (or (or ?v_33 x_1) x_11) (<= x_26 x_3))) (or (or (or ?v_35 x_4) x_12) (<= x_26 x_5))) (or (or x_13 x_29) (<= x_26 x_43))) (or (or (or (and (and (and (and ?v_58 ?v_12) ?v_3) ?v_59) ?v_60) (and (and (and (and ?v_61 ?v_13) ?v_4) ?v_62) ?v_63)) (and (and (and ?v_64 ?v_20) ?v_65) ?v_66)) ?v_41)) (= x_23 (or x_1 (= x_3 x_26)))) (= x_24 (or x_4 (= x_5 x_26)))) (= x_25 (or x_13 (= x_43 x_26)))) ?v_68) ?v_69) (and (and (and (and (and (and (and ?v_57 (not ?v_67)) x_14) ?v_68) ?v_69) (= x_26 x_2)) ?v_54) ?v_55)) ?v_70) ?v_71) ?v_27) ?v_53) ?v_51) ?v_52) ?v_72))) (or (or (and ?v_73 (= x_17 (ite (not x_7) x_0 1))) (and ?v_74 (= x_17 (ite ?v_75 x_0 2)))) (and (and ?v_76 ?v_2) (= x_17 x_0)))) (or (and (and ?v_78 ?v_77) (not (<= x_19 ?v_80))) (and ?v_81 (= x_19 x_3)))) (or (and (and ?v_78 ?v_79) (not (<= x_20 ?v_80))) (and ?v_81 (= x_20 x_5)))) (or (and (and ?v_78 (= x_18 (+ x_9 x_52))) x_53) (and (and ?v_81 (not x_53)) (= x_18 x_9)))) (or (and (and (and (and ?v_44 (not (<= x_54 x_26))) (not (<= x_55 x_26))) (< x_54 x_55)) (< x_55 x_56)) (and (and (and (not ?v_44) (= x_54 x_43)) (= x_55 x_46)) (= x_56 x_49)))) ?v_57) (or (and ?v_82 (not ?v_83)) (and ?v_84 (not ?v_85))))))))))))))
(check-sat)
(exit)
